c 144_3_checker.cnf
c
c field = 144
c formula set type = 3_checker
c
p cnf 4 64
280 
282 
284 
-278 
281 
283 
285 
-279 
280 
282 
284 
-288 
281 
283 
285 
-289 
282 
284 
288 
-280 
283 
285 
289 
-281 
282 
284 
288 
-290 
283 
285 
289 
-291 
284 
288 
290 
-282 
285 
289 
291 
-283 
284 
288 
290 
-292 
285 
289 
291 
-293 
288 
290 
292 
-284 
289 
291 
293 
-285 
288 
290 
292 
-294 
289 
291 
293 
-295 
196 
226 
256 
-166 
197 
227 
257 
-167 
196 
226 
256 
-316 
197 
227 
257 
-317 
226 
256 
316 
-196 
227 
257 
317 
-197 
226 
256 
316 
-346 
227 
257 
317 
-347 
256 
316 
346 
-226 
257 
317 
347 
-227 
256 
316 
346 
-376 
257 
317 
347 
-377 
316 
346 
376 
-256 
317 
347 
377 
-257 
316 
346 
376 
-406 
317 
347 
377 
-407 
190 
222 
254 
-158 
191 
223 
255 
-159 
190 
222 
254 
-318 
191 
223 
255 
-319 
222 
254 
318 
-190 
223 
255 
319 
-191 
222 
254 
318 
-350 
223 
255 
319 
-351 
254 
318 
350 
-222 
255 
319 
351 
-223 
254 
318 
350 
-382 
255 
319 
351 
-383 
318 
350 
382 
-254 
319 
351 
383 
-255 
318 
350 
382 
-414 
319 
351 
383 
-415 
202 
230 
258 
-174 
203 
231 
259 
-175 
202 
230 
258 
-314 
203 
231 
259 
-315 
230 
258 
314 
-202 
231 
259 
315 
-203 
230 
258 
314 
-342 
231 
259 
315 
-343 
258 
314 
342 
-230 
259 
315 
343 
-231 
258 
314 
342 
-370 
259 
315 
343 
-371 
314 
342 
370 
-258 
315 
343 
371 
-259 
314 
342 
370 
-398 
315 
343 
371 
-399 
